============================[ Problem Statistics ]=============================|                                                                             ||  Number of variables:          4242                                         ||  Number of clauses:            9909                                         ||  Parse time:                   0.32 s                                       ||                                                                             |============================[ Search Statistics ]==============================| Conflicts |          ORIGINAL         |          LEARNT          | Progress ||           |    Vars  Clauses Literals |    Limit  Clauses Lit/Cl |          |===============================================================================|       100 |    1591     6114   474775 |     2241      100     53 | 62.501 % |===============================================================================restarts              : 2conflicts             : 178            (367 /sec)decisions             : 349            (0.00 % random) (720 /sec)propagations          : 10021          (20662 /sec)conflict literals     : 12148          (95.25 % deleted)CPU time              : 0.485 sSATISFIABLE